(set-logic QF_BV)
(declare-fun _substvar_124_ () (_ BitVec 8))
(declare-fun _substvar_138_ () (_ BitVec 8))
(declare-fun _substvar_143_ () (_ BitVec 16))
(declare-fun _substvar_133_ () (_ BitVec 8))
(declare-fun _substvar_121_ () (_ BitVec 8))
(assert (let ( (?v_4 ((_ zero_extend 24) _substvar_133_)) (?v_0 ((_ zero_extend 24) _substvar_138_)) (?v_1 ((_ zero_extend 16) _substvar_143_))) (let ((?v_5 (bvadd ?v_1 (bvsub (_ bv4294967295 32) ?v_0)))) (let ((?v_7 (bvadd ?v_5 (bvsub (_ bv4294967295 32) ?v_4)))) (let ((?v_2 (bvadd ?v_7 (_ bv0 32))) (?v_3 ((_ zero_extend 24) _substvar_121_))) (and true true (bvult ?v_2 (bvadd ?v_3 (_ bv1 32))) true true (= (bvadd (bvadd ?v_2 (bvsub (_ bv4294967295 32) ?v_3)) (bvsub (_ bv4294967295 32) ((_ zero_extend 24) _substvar_124_))) (_ bv0 32)) true true true true true))))))
(check-sat)
(exit)
